* ENCODING=ISO-8859-1
NAME          CPLEX
ROWS
 N  obj1    
 G  c1      
 G  c2      
 G  c3      
 G  c4      
 G  c5      
 G  c6      
 G  c7      
 G  c8      
 G  c9      
 G  c10     
 G  c11     
 G  c12     
 G  c13     
 G  c14     
 G  c15     
 G  c16     
 G  c17     
 G  c18     
 G  c19     
 G  c20     
 G  c21     
 G  c22     
 G  c23     
 G  c24     
 G  c25     
 G  c26     
 G  c27     
 G  c28     
 G  c29     
 G  c30     
 G  c31     
 G  c32     
 G  c33     
 G  c34     
 G  c35     
 G  c36     
 G  c37     
 G  c38     
 G  c39     
 G  c40     
 G  c41     
 G  c42     
 G  c43     
 G  c44     
 G  c45     
 G  c46     
 G  c47     
 G  c48     
 G  c49     
 G  c50     
COLUMNS
    MARK0000  'MARKER'                 'INTORG'
    x1        obj1                            1
    x1        c16                           913
    x1        c18                           436
    x1        c20                           957
    x2        obj1                            1
    x2        c4                            145
    x2        c9                            887
    x2        c12                           962
    x2        c25                           927
    x2        c43                           621
    x3        obj1                            1
    x3        c27                           976
    x3        c29                           805
    x4        obj1                            1
    x4        c4                            815
    x4        c25                           856
    x4        c43                           698
    x4        c44                           194
    x4        c50                           851
    x5        obj1                            1
    x5        c20                           997
    x5        c21                           539
    x5        c22                           817
    x5        c23                           554
    x5        c34                           862
    x5        c48                           392
    x5        c49                           404
    x6        obj1                            1
    x6        c12                           510
    x6        c22                           972
    x6        c26                           716
    x6        c28                           517
    x6        c30                           440
    x6        c32                           691
    x6        c45                           544
    x7        obj1                            1
    x7        c2                            508
    x7        c12                           282
    x7        c25                           144
    x7        c49                           342
    x8        obj1                            1
    x8        c9                            167
    x8        c20                           105
    x8        c28                           128
    x8        c31                           613
    x8        c32                           726
    x8        c34                           943
    x8        c38                           727
    x8        c39                           805
    x9        obj1                            1
    x9        c14                           346
    x9        c17                           786
    x9        c23                           988
    x9        c31                           858
    x9        c37                           524
    x9        c39                           288
    x9        c42                           325
    x9        c46                           661
    x10       obj1                            1
    x10       c3                            959
    x10       c22                           224
    x10       c30                           142
    x10       c36                           908
    x10       c38                           367
    x10       c39                           734
    x10       c43                           732
    x10       c48                           907
    x11       obj1                            1
    x11       c1                            282
    x11       c6                            147
    x11       c8                            100
    x11       c18                           644
    x11       c42                           185
    x12       obj1                            1
    x12       c32                           135
    x12       c46                           547
    x13       obj1                            1
    x13       c19                           586
    x13       c26                           240
    x13       c34                           736
    x13       c44                           934
    x14       obj1                            1
    x14       c27                           262
    x14       c39                           923
    x15       obj1                            1
    x15       c6                            383
    x15       c12                           509
    x15       c31                           177
    x15       c35                           249
    x15       c37                           284
    x15       c41                           700
    x15       c46                           205
    x15       c50                           980
    x16       obj1                            1
    x16       c8                            878
    x16       c9                            751
    x16       c10                           789
    x16       c12                           301
    x16       c24                           993
    x16       c25                           991
    x16       c46                           111
    x17       obj1                            1
    x17       c1                            316
    x17       c2                            725
    x17       c8                            502
    x17       c12                           247
    x17       c16                           250
    x17       c24                           331
    x17       c25                           547
    x17       c31                           823
    x17       c50                           282
    x18       obj1                            1
    x18       c30                           750
    x18       c46                           180
    x18       c50                           281
    x19       obj1                            1
    x19       c9                            597
    x19       c11                           597
    x19       c18                           317
    x19       c29                           951
    x19       c34                           917
    x19       c35                           643
    x20       obj1                            1
    x20       c8                            976
    x20       c20                           519
    x20       c26                           820
    x20       c47                           778
    x21       obj1                            1
    x21       c3                            284
    x21       c10                           795
    x21       c24                           161
    x21       c50                           842
    x22       obj1                            1
    x22       c15                           988
    x22       c17                           581
    x22       c21                           794
    x23       obj1                            1
    x23       c10                           352
    x23       c31                           630
    x23       c35                           703
    x24       obj1                            1
    x24       c4                            334
    x24       c5                            100
    x24       c16                           699
    x24       c43                           584
    x25       obj1                            1
    x25       c3                            137
    x25       c7                            628
    x25       c19                           577
    x25       c26                           137
    x25       c41                           390
    x25       c50                           824
    x26       obj1                            1
    x26       c2                            785
    x26       c13                           425
    x26       c30                           500
    x26       c34                           302
    x26       c47                           993
    x27       obj1                            1
    x27       c3                            168
    x27       c21                           645
    x27       c27                           551
    x27       c32                           984
    x27       c33                           254
    x27       c39                           919
    x28       obj1                            1
    x28       c9                            353
    x28       c10                           441
    x28       c11                           999
    x28       c16                           555
    x28       c32                           449
    x28       c33                           234
    x28       c35                           765
    x28       c36                           856
    x28       c40                           370
    x29       obj1                            1
    x29       c5                            215
    x29       c15                           875
    x29       c24                           117
    x29       c27                           852
    x30       obj1                            1
    x30       c1                            127
    x30       c2                            230
    x30       c10                           647
    x30       c13                           633
    x30       c37                           960
    x30       c50                           272
    x31       obj1                            1
    x31       c3                            987
    x31       c4                            698
    x31       c25                           809
    x31       c28                           739
    x31       c39                           153
    x31       c47                           835
    x32       obj1                            1
    x32       c20                           259
    x32       c29                           702
    x32       c44                           174
    x32       c48                           864
    x33       obj1                            1
    x33       c31                           580
    x34       obj1                            1
    x34       c2                            606
    x34       c6                            505
    x34       c43                           580
    x35       obj1                            1
    x35       c2                            104
    x35       c17                           524
    x35       c19                           315
    x35       c20                           683
    x35       c38                           309
    x35       c48                           416
    x36       obj1                            1
    x36       c17                           618
    x36       c45                           458
    x36       c47                           942
    x37       obj1                            1
    x37       c8                            755
    x37       c16                           235
    x37       c18                           580
    x37       c30                           999
    x37       c36                           724
    x38       obj1                            1
    x38       c6                            924
    x38       c28                           407
    x38       c36                           263
    x38       c49                           651
    x39       obj1                            1
    x39       c7                            293
    x39       c15                           606
    x39       c21                           613
    x39       c27                           649
    x40       obj1                            1
    x40       c1                            746
    x40       c8                            636
    x40       c12                           127
    x40       c13                           762
    x40       c14                           994
    x40       c27                           167
    x40       c29                           786
    x40       c33                           901
    x40       c45                           447
    x40       c46                           631
    x41       obj1                            1
    x41       c1                            531
    x41       c20                           667
    x41       c31                           722
    x41       c36                           773
    x41       c38                           270
    x42       obj1                            1
    x42       c27                           397
    x43       obj1                            1
    x43       c1                            675
    x43       c28                           278
    x43       c37                           119
    x44       obj1                            1
    x44       c7                            553
    x44       c42                           971
    x44       c43                           564
    x44       c49                           518
    x45       obj1                            1
    x45       c9                            201
    x45       c37                           794
    x45       c40                           488
    x46       obj1                            1
    x46       c2                            214
    x46       c4                            894
    x46       c23                           525
    x46       c26                           329
    x46       c32                           472
    x46       c33                           483
    x46       c40                           141
    x47       obj1                            1
    x47       c5                            232
    x47       c14                           654
    x47       c21                           363
    x47       c30                           209
    x47       c33                           714
    x47       c40                           346
    x48       obj1                            1
    x48       c4                            414
    x48       c11                           112
    x48       c18                           144
    x49       obj1                            1
    x49       c26                           678
    x49       c38                           346
    x49       c44                           575
    x50       obj1                            1
    x50       c5                            595
    x50       c8                            953
    x50       c13                           630
    x50       c19                           372
    x50       c33                           752
    x50       c37                           415
    x50       c38                           987
    x50       c41                           368
    MARK0001  'MARKER'                 'INTEND'
RHS
    rhs       c1                           1339
    rhs       c2                           1586
    rhs       c3                           1268
    rhs       c4                           1650
    rhs       c5                            571
    rhs       c6                            980
    rhs       c7                            737
    rhs       c8                           2400
    rhs       c9                           1478
    rhs       c10                          1512
    rhs       c11                           854
    rhs       c12                          1469
    rhs       c13                          1225
    rhs       c14                           997
    rhs       c15                          1235
    rhs       c16                          1326
    rhs       c17                          1255
    rhs       c18                          1061
    rhs       c19                           925
    rhs       c20                          2094
    rhs       c21                          1477
    rhs       c22                          1007
    rhs       c23                          1034
    rhs       c24                           801
    rhs       c25                          2137
    rhs       c26                          1460
    rhs       c27                          1927
    rhs       c28                          1035
    rhs       c29                          1622
    rhs       c30                          1520
    rhs       c31                          2202
    rhs       c32                          1729
    rhs       c33                          1669
    rhs       c34                          1880
    rhs       c35                          1180
    rhs       c36                          1762
    rhs       c37                          1548
    rhs       c38                          1503
    rhs       c39                          1911
    rhs       c40                           673
    rhs       c41                           729
    rhs       c42                           741
    rhs       c43                          1890
    rhs       c44                           939
    rhs       c45                           725
    rhs       c46                          1168
    rhs       c47                          1774
    rhs       c48                          1290
    rhs       c49                           958
    rhs       c50                          2166
BOUNDS
 LI bnd       x1        0
 LI bnd       x2        0
 LI bnd       x3        0
 LI bnd       x4        0
 LI bnd       x5        0
 LI bnd       x6        0
 LI bnd       x7        0
 LI bnd       x8        0
 LI bnd       x9        0
 LI bnd       x10       0
 LI bnd       x11       0
 LI bnd       x12       0
 LI bnd       x13       0
 LI bnd       x14       0
 LI bnd       x15       0
 LI bnd       x16       0
 LI bnd       x17       0
 LI bnd       x18       0
 LI bnd       x19       0
 LI bnd       x20       0
 LI bnd       x21       0
 LI bnd       x22       0
 LI bnd       x23       0
 LI bnd       x24       0
 LI bnd       x25       0
 LI bnd       x26       0
 LI bnd       x27       0
 LI bnd       x28       0
 LI bnd       x29       0
 LI bnd       x30       0
 LI bnd       x31       0
 LI bnd       x32       0
 LI bnd       x33       0
 LI bnd       x34       0
 LI bnd       x35       0
 LI bnd       x36       0
 LI bnd       x37       0
 LI bnd       x38       0
 LI bnd       x39       0
 LI bnd       x40       0
 LI bnd       x41       0
 LI bnd       x42       0
 LI bnd       x43       0
 LI bnd       x44       0
 LI bnd       x45       0
 LI bnd       x46       0
 LI bnd       x47       0
 LI bnd       x48       0
 LI bnd       x49       0
 LI bnd       x50       0
ENDATA
